%
% Perfect square placement problem.
%
% This problem instance use the flag collect_workers = true
% which requires that "near" workers must solve the tasks.
%
%
% From http://www.maa.org/editorial/mathgames/mathgames_12_01_03.html
% size  = 12;
% n = 14;
% a = [1,1,1,1,2,3,3,3,5,6,6,8];

num_jobs = 12;
num_workers = 14;
%            1  2  3  4  5  6  7  8  9 10 11 12
duration = [ 1, 1, 1, 1, 2, 3, 3, 3, 5, 6, 6, 8];
resource = [ 1, 1, 1, 1, 2, 3, 3, 3, 5, 6, 6, 8];
max_time = num_workers; % optimal: 14
allow_idle = true;
collect_workers = true;
do_precendences = false;
num_precedences = 1;
precedences = array2d(1..num_precedences, 1..2, 
[ 
  0,0, % dummy precedence
]);

